(set-info :category "industrial")
(set-info :status sat)
(declare-fun x00 () (_ BitVec 8))
(declare-fun x01 () (_ BitVec 8))
(declare-fun x02 () (_ BitVec 8))
(declare-fun x04 () (_ BitVec 8))
(declare-fun x06 () (_ BitVec 8))
(declare-fun x12 () (_ BitVec 8))
(declare-fun x14 () (_ BitVec 8))
(declare-fun x15 () (_ BitVec 8))
(declare-fun x16 () (_ BitVec 8))
(declare-fun x17 () (_ BitVec 8))
(declare-fun x18 () (_ BitVec 8))
(declare-fun x20 () (_ BitVec 8))
(declare-fun x22 () (_ BitVec 8))
(declare-fun x25 () (_ BitVec 8))
(declare-fun x27 () (_ BitVec 8))
(declare-fun x28 () (_ BitVec 8))
(declare-fun x30 () (_ BitVec 8))
(declare-fun x32 () (_ BitVec 8))
(declare-fun x33 () (_ BitVec 8))
(declare-fun x34 () (_ BitVec 8))
(declare-fun x35 () (_ BitVec 8))
(declare-fun x38 () (_ BitVec 8))
(declare-fun x41 () (_ BitVec 8))
(declare-fun x43 () (_ BitVec 8))
(declare-fun x44 () (_ BitVec 8))
(declare-fun x45 () (_ BitVec 8))
(declare-fun x46 () (_ BitVec 8))
(declare-fun x47 () (_ BitVec 8))
(declare-fun x53 () (_ BitVec 8))
(declare-fun x54 () (_ BitVec 8))
(declare-fun x55 () (_ BitVec 8))
(declare-fun x57 () (_ BitVec 8))
(declare-fun x58 () (_ BitVec 8))
(declare-fun x60 () (_ BitVec 8))
(declare-fun x61 () (_ BitVec 8))
(declare-fun x62 () (_ BitVec 8))
(declare-fun x64 () (_ BitVec 8))
(declare-fun x66 () (_ BitVec 8))
(declare-fun x67 () (_ BitVec 8))
(declare-fun x70 () (_ BitVec 8))
(declare-fun x71 () (_ BitVec 8))
(declare-fun x74 () (_ BitVec 8))
(declare-fun x75 () (_ BitVec 8))
(declare-fun x76 () (_ BitVec 8))
(declare-fun x81 () (_ BitVec 8))
(declare-fun x82 () (_ BitVec 8))
(declare-fun x87 () (_ BitVec 8))
(declare-fun x88 () (_ BitVec 8))
(assert (bvult x00 (_ bv9 8)))
(assert (bvult x01 (_ bv9 8)))
(assert (bvult x02 (_ bv9 8)))
(assert (bvult x04 (_ bv9 8)))
(assert (bvult x06 (_ bv9 8)))
(assert (bvult x12 (_ bv9 8)))
(assert (bvult x14 (_ bv9 8)))
(assert (bvult x15 (_ bv9 8)))
(assert (bvult x16 (_ bv9 8)))
(assert (bvult x17 (_ bv9 8)))
(assert (bvult x18 (_ bv9 8)))
(assert (bvult x20 (_ bv9 8)))
(assert (bvult x22 (_ bv9 8)))
(assert (bvult x25 (_ bv9 8)))
(assert (bvult x27 (_ bv9 8)))
(assert (bvult x28 (_ bv9 8)))
(assert (bvult x30 (_ bv9 8)))
(assert (bvult x32 (_ bv9 8)))
(assert (bvult x33 (_ bv9 8)))
(assert (bvult x34 (_ bv9 8)))
(assert (bvult x35 (_ bv9 8)))
(assert (bvult x38 (_ bv9 8)))
(assert (bvult x41 (_ bv9 8)))
(assert (bvult x43 (_ bv9 8)))
(assert (bvult x44 (_ bv9 8)))
(assert (bvult x45 (_ bv9 8)))
(assert (bvult x46 (_ bv9 8)))
(assert (bvult x47 (_ bv9 8)))
(assert (bvult x53 (_ bv9 8)))
(assert (bvult x54 (_ bv9 8)))
(assert (bvult x55 (_ bv9 8)))
(assert (bvult x57 (_ bv9 8)))
(assert (bvult x58 (_ bv9 8)))
(assert (bvult x60 (_ bv9 8)))
(assert (bvult x61 (_ bv9 8)))
(assert (bvult x62 (_ bv9 8)))
(assert (bvult x64 (_ bv9 8)))
(assert (bvult x66 (_ bv9 8)))
(assert (bvult x67 (_ bv9 8)))
(assert (bvult x70 (_ bv9 8)))
(assert (bvult x71 (_ bv9 8)))
(assert (bvult x74 (_ bv9 8)))
(assert (bvult x75 (_ bv9 8)))
(assert (bvult x76 (_ bv9 8)))
(assert (bvult x81 (_ bv9 8)))
(assert (bvult x82 (_ bv9 8)))
(assert (bvult x87 (_ bv9 8)))
(assert (bvult x88 (_ bv9 8)))
(assert (not (= x00 x01)))
(assert (not (= x00 x02)))
(assert (not (= x00 (_ bv8 8))))
(assert (not (= x00 x04)))
(assert (not (= x00 (_ bv5 8))))
(assert (not (= x00 x06)))
(assert (not (= x00 (_ bv6 8))))
(assert (not (= x00 (_ bv1 8))))
(assert (not (= x01 x02)))
(assert (not (= x01 (_ bv8 8))))
(assert (not (= x01 x04)))
(assert (not (= x01 (_ bv5 8))))
(assert (not (= x01 x06)))
(assert (not (= x01 (_ bv6 8))))
(assert (not (= x01 (_ bv1 8))))
(assert (not (= x02 (_ bv8 8))))
(assert (not (= x02 x04)))
(assert (not (= x02 (_ bv5 8))))
(assert (not (= x02 x06)))
(assert (not (= x02 (_ bv6 8))))
(assert (not (= x02 (_ bv1 8))))
(assert (not (= (_ bv8 8) x04)))
(assert (not (= (_ bv8 8) (_ bv5 8))))
(assert (not (= (_ bv8 8) x06)))
(assert (not (= (_ bv8 8) (_ bv6 8))))
(assert (not (= (_ bv8 8) (_ bv1 8))))
(assert (not (= x04 (_ bv5 8))))
(assert (not (= x04 x06)))
(assert (not (= x04 (_ bv6 8))))
(assert (not (= x04 (_ bv1 8))))
(assert (not (= (_ bv5 8) x06)))
(assert (not (= (_ bv5 8) (_ bv6 8))))
(assert (not (= (_ bv5 8) (_ bv1 8))))
(assert (not (= x06 (_ bv6 8))))
(assert (not (= x06 (_ bv1 8))))
(assert (not (= (_ bv6 8) (_ bv1 8))))
(assert (not (= (_ bv5 8) (_ bv3 8))))
(assert (not (= (_ bv5 8) x12)))
(assert (not (= (_ bv5 8) (_ bv4 8))))
(assert (not (= (_ bv5 8) x14)))
(assert (not (= (_ bv5 8) x15)))
(assert (not (= (_ bv5 8) x16)))
(assert (not (= (_ bv5 8) x17)))
(assert (not (= (_ bv5 8) x18)))
(assert (not (= (_ bv3 8) x12)))
(assert (not (= (_ bv3 8) (_ bv4 8))))
(assert (not (= (_ bv3 8) x14)))
(assert (not (= (_ bv3 8) x15)))
(assert (not (= (_ bv3 8) x16)))
(assert (not (= (_ bv3 8) x17)))
(assert (not (= (_ bv3 8) x18)))
(assert (not (= x12 (_ bv4 8))))
(assert (not (= x12 x14)))
(assert (not (= x12 x15)))
(assert (not (= x12 x16)))
(assert (not (= x12 x17)))
(assert (not (= x12 x18)))
(assert (not (= (_ bv4 8) x14)))
(assert (not (= (_ bv4 8) x15)))
(assert (not (= (_ bv4 8) x16)))
(assert (not (= (_ bv4 8) x17)))
(assert (not (= (_ bv4 8) x18)))
(assert (not (= x14 x15)))
(assert (not (= x14 x16)))
(assert (not (= x14 x17)))
(assert (not (= x14 x18)))
(assert (not (= x15 x16)))
(assert (not (= x15 x17)))
(assert (not (= x15 x18)))
(assert (not (= x16 x17)))
(assert (not (= x16 x18)))
(assert (not (= x17 x18)))
(assert (not (= x20 (_ bv6 8))))
(assert (not (= x20 x22)))
(assert (not (= x20 (_ bv1 8))))
(assert (not (= x20 (_ bv9 8))))
(assert (not (= x20 x25)))
(assert (not (= x20 (_ bv4 8))))
(assert (not (= x20 x27)))
(assert (not (= x20 x28)))
(assert (not (= (_ bv6 8) x22)))
(assert (not (= (_ bv6 8) (_ bv1 8))))
(assert (not (= (_ bv6 8) (_ bv9 8))))
(assert (not (= (_ bv6 8) x25)))
(assert (not (= (_ bv6 8) (_ bv4 8))))
(assert (not (= (_ bv6 8) x27)))
(assert (not (= (_ bv6 8) x28)))
(assert (not (= x22 (_ bv1 8))))
(assert (not (= x22 (_ bv9 8))))
(assert (not (= x22 x25)))
(assert (not (= x22 (_ bv4 8))))
(assert (not (= x22 x27)))
(assert (not (= x22 x28)))
(assert (not (= (_ bv1 8) (_ bv9 8))))
(assert (not (= (_ bv1 8) x25)))
(assert (not (= (_ bv1 8) (_ bv4 8))))
(assert (not (= (_ bv1 8) x27)))
(assert (not (= (_ bv1 8) x28)))
(assert (not (= (_ bv9 8) x25)))
(assert (not (= (_ bv9 8) (_ bv4 8))))
(assert (not (= (_ bv9 8) x27)))
(assert (not (= (_ bv9 8) x28)))
(assert (not (= x25 (_ bv4 8))))
(assert (not (= x25 x27)))
(assert (not (= x25 x28)))
(assert (not (= (_ bv4 8) x27)))
(assert (not (= (_ bv4 8) x28)))
(assert (not (= x27 x28)))
(assert (not (= x30 (_ bv1 8))))
(assert (not (= x30 x32)))
(assert (not (= x30 x33)))
(assert (not (= x30 x34)))
(assert (not (= x30 x35)))
(assert (not (= x30 (_ bv9 8))))
(assert (not (= x30 (_ bv5 8))))
(assert (not (= x30 x38)))
(assert (not (= (_ bv1 8) x32)))
(assert (not (= (_ bv1 8) x33)))
(assert (not (= (_ bv1 8) x34)))
(assert (not (= (_ bv1 8) x35)))
(assert (not (= (_ bv1 8) (_ bv9 8))))
(assert (not (= (_ bv1 8) (_ bv5 8))))
(assert (not (= (_ bv1 8) x38)))
(assert (not (= x32 x33)))
(assert (not (= x32 x34)))
(assert (not (= x32 x35)))
(assert (not (= x32 (_ bv9 8))))
(assert (not (= x32 (_ bv5 8))))
(assert (not (= x32 x38)))
(assert (not (= x33 x34)))
(assert (not (= x33 x35)))
(assert (not (= x33 (_ bv9 8))))
(assert (not (= x33 (_ bv5 8))))
(assert (not (= x33 x38)))
(assert (not (= x34 x35)))
(assert (not (= x34 (_ bv9 8))))
(assert (not (= x34 (_ bv5 8))))
(assert (not (= x34 x38)))
(assert (not (= x35 (_ bv9 8))))
(assert (not (= x35 (_ bv5 8))))
(assert (not (= x35 x38)))
(assert (not (= (_ bv9 8) (_ bv5 8))))
(assert (not (= (_ bv9 8) x38)))
(assert (not (= (_ bv5 8) x38)))
(assert (not (= (_ bv2 8) x41)))
(assert (not (= (_ bv2 8) (_ bv9 8))))
(assert (not (= (_ bv2 8) x43)))
(assert (not (= (_ bv2 8) x44)))
(assert (not (= (_ bv2 8) x45)))
(assert (not (= (_ bv2 8) x46)))
(assert (not (= (_ bv2 8) x47)))
(assert (not (= (_ bv2 8) (_ bv7 8))))
(assert (not (= x41 (_ bv9 8))))
(assert (not (= x41 x43)))
(assert (not (= x41 x44)))
(assert (not (= x41 x45)))
(assert (not (= x41 x46)))
(assert (not (= x41 x47)))
(assert (not (= x41 (_ bv7 8))))
(assert (not (= (_ bv9 8) x43)))
(assert (not (= (_ bv9 8) x44)))
(assert (not (= (_ bv9 8) x45)))
(assert (not (= (_ bv9 8) x46)))
(assert (not (= (_ bv9 8) x47)))
(assert (not (= (_ bv9 8) (_ bv7 8))))
(assert (not (= x43 x44)))
(assert (not (= x43 x45)))
(assert (not (= x43 x46)))
(assert (not (= x43 x47)))
(assert (not (= x43 (_ bv7 8))))
(assert (not (= x44 x45)))
(assert (not (= x44 x46)))
(assert (not (= x44 x47)))
(assert (not (= x44 (_ bv7 8))))
(assert (not (= x45 x46)))
(assert (not (= x45 x47)))
(assert (not (= x45 (_ bv7 8))))
(assert (not (= x46 x47)))
(assert (not (= x46 (_ bv7 8))))
(assert (not (= x47 (_ bv7 8))))
(assert (not (= (_ bv8 8) (_ bv7 8))))
(assert (not (= (_ bv8 8) (_ bv4 8))))
(assert (not (= (_ bv8 8) x53)))
(assert (not (= (_ bv8 8) x54)))
(assert (not (= (_ bv8 8) x55)))
(assert (not (= (_ bv8 8) (_ bv2 8))))
(assert (not (= (_ bv8 8) x57)))
(assert (not (= (_ bv8 8) x58)))
(assert (not (= (_ bv7 8) (_ bv4 8))))
(assert (not (= (_ bv7 8) x53)))
(assert (not (= (_ bv7 8) x54)))
(assert (not (= (_ bv7 8) x55)))
(assert (not (= (_ bv7 8) (_ bv2 8))))
(assert (not (= (_ bv7 8) x57)))
(assert (not (= (_ bv7 8) x58)))
(assert (not (= (_ bv4 8) x53)))
(assert (not (= (_ bv4 8) x54)))
(assert (not (= (_ bv4 8) x55)))
(assert (not (= (_ bv4 8) (_ bv2 8))))
(assert (not (= (_ bv4 8) x57)))
(assert (not (= (_ bv4 8) x58)))
(assert (not (= x53 x54)))
(assert (not (= x53 x55)))
(assert (not (= x53 (_ bv2 8))))
(assert (not (= x53 x57)))
(assert (not (= x53 x58)))
(assert (not (= x54 x55)))
(assert (not (= x54 (_ bv2 8))))
(assert (not (= x54 x57)))
(assert (not (= x54 x58)))
(assert (not (= x55 (_ bv2 8))))
(assert (not (= x55 x57)))
(assert (not (= x55 x58)))
(assert (not (= (_ bv2 8) x57)))
(assert (not (= (_ bv2 8) x58)))
(assert (not (= x57 x58)))
(assert (not (= x60 x61)))
(assert (not (= x60 x62)))
(assert (not (= x60 (_ bv2 8))))
(assert (not (= x60 x64)))
(assert (not (= x60 (_ bv3 8))))
(assert (not (= x60 x66)))
(assert (not (= x60 x67)))
(assert (not (= x60 (_ bv9 8))))
(assert (not (= x61 x62)))
(assert (not (= x61 (_ bv2 8))))
(assert (not (= x61 x64)))
(assert (not (= x61 (_ bv3 8))))
(assert (not (= x61 x66)))
(assert (not (= x61 x67)))
(assert (not (= x61 (_ bv9 8))))
(assert (not (= x62 (_ bv2 8))))
(assert (not (= x62 x64)))
(assert (not (= x62 (_ bv3 8))))
(assert (not (= x62 x66)))
(assert (not (= x62 x67)))
(assert (not (= x62 (_ bv9 8))))
(assert (not (= (_ bv2 8) x64)))
(assert (not (= (_ bv2 8) (_ bv3 8))))
(assert (not (= (_ bv2 8) x66)))
(assert (not (= (_ bv2 8) x67)))
(assert (not (= (_ bv2 8) (_ bv9 8))))
(assert (not (= x64 (_ bv3 8))))
(assert (not (= x64 x66)))
(assert (not (= x64 x67)))
(assert (not (= x64 (_ bv9 8))))
(assert (not (= (_ bv3 8) x66)))
(assert (not (= (_ bv3 8) x67)))
(assert (not (= (_ bv3 8) (_ bv9 8))))
(assert (not (= x66 x67)))
(assert (not (= x66 (_ bv9 8))))
(assert (not (= x67 (_ bv9 8))))
(assert (not (= x70 x71)))
(assert (not (= x70 (_ bv6 8))))
(assert (not (= x70 (_ bv5 8))))
(assert (not (= x70 x74)))
(assert (not (= x70 x75)))
(assert (not (= x70 x76)))
(assert (not (= x70 (_ bv2 8))))
(assert (not (= x70 (_ bv8 8))))
(assert (not (= x71 (_ bv6 8))))
(assert (not (= x71 (_ bv5 8))))
(assert (not (= x71 x74)))
(assert (not (= x71 x75)))
(assert (not (= x71 x76)))
(assert (not (= x71 (_ bv2 8))))
(assert (not (= x71 (_ bv8 8))))
(assert (not (= (_ bv6 8) (_ bv5 8))))
(assert (not (= (_ bv6 8) x74)))
(assert (not (= (_ bv6 8) x75)))
(assert (not (= (_ bv6 8) x76)))
(assert (not (= (_ bv6 8) (_ bv2 8))))
(assert (not (= (_ bv6 8) (_ bv8 8))))
(assert (not (= (_ bv5 8) x74)))
(assert (not (= (_ bv5 8) x75)))
(assert (not (= (_ bv5 8) x76)))
(assert (not (= (_ bv5 8) (_ bv2 8))))
(assert (not (= (_ bv5 8) (_ bv8 8))))
(assert (not (= x74 x75)))
(assert (not (= x74 x76)))
(assert (not (= x74 (_ bv2 8))))
(assert (not (= x74 (_ bv8 8))))
(assert (not (= x75 x76)))
(assert (not (= x75 (_ bv2 8))))
(assert (not (= x75 (_ bv8 8))))
(assert (not (= x76 (_ bv2 8))))
(assert (not (= x76 (_ bv8 8))))
(assert (not (= (_ bv2 8) (_ bv8 8))))
(assert (not (= (_ bv4 8) x81)))
(assert (not (= (_ bv4 8) x82)))
(assert (not (= (_ bv4 8) (_ bv9 8))))
(assert (not (= (_ bv4 8) (_ bv8 8))))
(assert (not (= (_ bv4 8) (_ bv1 8))))
(assert (not (= (_ bv4 8) (_ bv3 8))))
(assert (not (= (_ bv4 8) x87)))
(assert (not (= (_ bv4 8) x88)))
(assert (not (= x81 x82)))
(assert (not (= x81 (_ bv9 8))))
(assert (not (= x81 (_ bv8 8))))
(assert (not (= x81 (_ bv1 8))))
(assert (not (= x81 (_ bv3 8))))
(assert (not (= x81 x87)))
(assert (not (= x81 x88)))
(assert (not (= x82 (_ bv9 8))))
(assert (not (= x82 (_ bv8 8))))
(assert (not (= x82 (_ bv1 8))))
(assert (not (= x82 (_ bv3 8))))
(assert (not (= x82 x87)))
(assert (not (= x82 x88)))
(assert (not (= (_ bv9 8) (_ bv8 8))))
(assert (not (= (_ bv9 8) (_ bv1 8))))
(assert (not (= (_ bv9 8) (_ bv3 8))))
(assert (not (= (_ bv9 8) x87)))
(assert (not (= (_ bv9 8) x88)))
(assert (not (= (_ bv8 8) (_ bv1 8))))
(assert (not (= (_ bv8 8) (_ bv3 8))))
(assert (not (= (_ bv8 8) x87)))
(assert (not (= (_ bv8 8) x88)))
(assert (not (= (_ bv1 8) (_ bv3 8))))
(assert (not (= (_ bv1 8) x87)))
(assert (not (= (_ bv1 8) x88)))
(assert (not (= (_ bv3 8) x87)))
(assert (not (= (_ bv3 8) x88)))
(assert (not (= x87 x88)))
(assert (not (= x00 (_ bv5 8))))
(assert (not (= x00 x20)))
(assert (not (= x00 x30)))
(assert (not (= x00 (_ bv2 8))))
(assert (not (= x00 (_ bv8 8))))
(assert (not (= x00 x60)))
(assert (not (= x00 x70)))
(assert (not (= x00 (_ bv4 8))))
(assert (not (= (_ bv5 8) x20)))
(assert (not (= (_ bv5 8) x30)))
(assert (not (= (_ bv5 8) (_ bv2 8))))
(assert (not (= (_ bv5 8) (_ bv8 8))))
(assert (not (= (_ bv5 8) x60)))
(assert (not (= (_ bv5 8) x70)))
(assert (not (= (_ bv5 8) (_ bv4 8))))
(assert (not (= x20 x30)))
(assert (not (= x20 (_ bv2 8))))
(assert (not (= x20 (_ bv8 8))))
(assert (not (= x20 x60)))
(assert (not (= x20 x70)))
(assert (not (= x20 (_ bv4 8))))
(assert (not (= x30 (_ bv2 8))))
(assert (not (= x30 (_ bv8 8))))
(assert (not (= x30 x60)))
(assert (not (= x30 x70)))
(assert (not (= x30 (_ bv4 8))))
(assert (not (= (_ bv2 8) (_ bv8 8))))
(assert (not (= (_ bv2 8) x60)))
(assert (not (= (_ bv2 8) x70)))
(assert (not (= (_ bv2 8) (_ bv4 8))))
(assert (not (= (_ bv8 8) x60)))
(assert (not (= (_ bv8 8) x70)))
(assert (not (= (_ bv8 8) (_ bv4 8))))
(assert (not (= x60 x70)))
(assert (not (= x60 (_ bv4 8))))
(assert (not (= x70 (_ bv4 8))))
(assert (not (= x01 (_ bv3 8))))
(assert (not (= x01 (_ bv6 8))))
(assert (not (= x01 (_ bv1 8))))
(assert (not (= x01 x41)))
(assert (not (= x01 (_ bv7 8))))
(assert (not (= x01 x61)))
(assert (not (= x01 x71)))
(assert (not (= x01 x81)))
(assert (not (= (_ bv3 8) (_ bv6 8))))
(assert (not (= (_ bv3 8) (_ bv1 8))))
(assert (not (= (_ bv3 8) x41)))
(assert (not (= (_ bv3 8) (_ bv7 8))))
(assert (not (= (_ bv3 8) x61)))
(assert (not (= (_ bv3 8) x71)))
(assert (not (= (_ bv3 8) x81)))
(assert (not (= (_ bv6 8) (_ bv1 8))))
(assert (not (= (_ bv6 8) x41)))
(assert (not (= (_ bv6 8) (_ bv7 8))))
(assert (not (= (_ bv6 8) x61)))
(assert (not (= (_ bv6 8) x71)))
(assert (not (= (_ bv6 8) x81)))
(assert (not (= (_ bv1 8) x41)))
(assert (not (= (_ bv1 8) (_ bv7 8))))
(assert (not (= (_ bv1 8) x61)))
(assert (not (= (_ bv1 8) x71)))
(assert (not (= (_ bv1 8) x81)))
(assert (not (= x41 (_ bv7 8))))
(assert (not (= x41 x61)))
(assert (not (= x41 x71)))
(assert (not (= x41 x81)))
(assert (not (= (_ bv7 8) x61)))
(assert (not (= (_ bv7 8) x71)))
(assert (not (= (_ bv7 8) x81)))
(assert (not (= x61 x71)))
(assert (not (= x61 x81)))
(assert (not (= x71 x81)))
(assert (not (= x02 x12)))
(assert (not (= x02 x22)))
(assert (not (= x02 x32)))
(assert (not (= x02 (_ bv9 8))))
(assert (not (= x02 (_ bv4 8))))
(assert (not (= x02 x62)))
(assert (not (= x02 (_ bv6 8))))
(assert (not (= x02 x82)))
(assert (not (= x12 x22)))
(assert (not (= x12 x32)))
(assert (not (= x12 (_ bv9 8))))
(assert (not (= x12 (_ bv4 8))))
(assert (not (= x12 x62)))
(assert (not (= x12 (_ bv6 8))))
(assert (not (= x12 x82)))
(assert (not (= x22 x32)))
(assert (not (= x22 (_ bv9 8))))
(assert (not (= x22 (_ bv4 8))))
(assert (not (= x22 x62)))
(assert (not (= x22 (_ bv6 8))))
(assert (not (= x22 x82)))
(assert (not (= x32 (_ bv9 8))))
(assert (not (= x32 (_ bv4 8))))
(assert (not (= x32 x62)))
(assert (not (= x32 (_ bv6 8))))
(assert (not (= x32 x82)))
(assert (not (= (_ bv9 8) (_ bv4 8))))
(assert (not (= (_ bv9 8) x62)))
(assert (not (= (_ bv9 8) (_ bv6 8))))
(assert (not (= (_ bv9 8) x82)))
(assert (not (= (_ bv4 8) x62)))
(assert (not (= (_ bv4 8) (_ bv6 8))))
(assert (not (= (_ bv4 8) x82)))
(assert (not (= x62 (_ bv6 8))))
(assert (not (= x62 x82)))
(assert (not (= (_ bv6 8) x82)))
(assert (not (= (_ bv8 8) (_ bv4 8))))
(assert (not (= (_ bv8 8) (_ bv1 8))))
(assert (not (= (_ bv8 8) x33)))
(assert (not (= (_ bv8 8) x43)))
(assert (not (= (_ bv8 8) x53)))
(assert (not (= (_ bv8 8) (_ bv2 8))))
(assert (not (= (_ bv8 8) (_ bv5 8))))
(assert (not (= (_ bv8 8) (_ bv9 8))))
(assert (not (= (_ bv4 8) (_ bv1 8))))
(assert (not (= (_ bv4 8) x33)))
(assert (not (= (_ bv4 8) x43)))
(assert (not (= (_ bv4 8) x53)))
(assert (not (= (_ bv4 8) (_ bv2 8))))
(assert (not (= (_ bv4 8) (_ bv5 8))))
(assert (not (= (_ bv4 8) (_ bv9 8))))
(assert (not (= (_ bv1 8) x33)))
(assert (not (= (_ bv1 8) x43)))
(assert (not (= (_ bv1 8) x53)))
(assert (not (= (_ bv1 8) (_ bv2 8))))
(assert (not (= (_ bv1 8) (_ bv5 8))))
(assert (not (= (_ bv1 8) (_ bv9 8))))
(assert (not (= x33 x43)))
(assert (not (= x33 x53)))
(assert (not (= x33 (_ bv2 8))))
(assert (not (= x33 (_ bv5 8))))
(assert (not (= x33 (_ bv9 8))))
(assert (not (= x43 x53)))
(assert (not (= x43 (_ bv2 8))))
(assert (not (= x43 (_ bv5 8))))
(assert (not (= x43 (_ bv9 8))))
(assert (not (= x53 (_ bv2 8))))
(assert (not (= x53 (_ bv5 8))))
(assert (not (= x53 (_ bv9 8))))
(assert (not (= (_ bv2 8) (_ bv5 8))))
(assert (not (= (_ bv2 8) (_ bv9 8))))
(assert (not (= (_ bv5 8) (_ bv9 8))))
(assert (not (= x04 x14)))
(assert (not (= x04 (_ bv9 8))))
(assert (not (= x04 x34)))
(assert (not (= x04 x44)))
(assert (not (= x04 x54)))
(assert (not (= x04 x64)))
(assert (not (= x04 x74)))
(assert (not (= x04 (_ bv8 8))))
(assert (not (= x14 (_ bv9 8))))
(assert (not (= x14 x34)))
(assert (not (= x14 x44)))
(assert (not (= x14 x54)))
(assert (not (= x14 x64)))
(assert (not (= x14 x74)))
(assert (not (= x14 (_ bv8 8))))
(assert (not (= (_ bv9 8) x34)))
(assert (not (= (_ bv9 8) x44)))
(assert (not (= (_ bv9 8) x54)))
(assert (not (= (_ bv9 8) x64)))
(assert (not (= (_ bv9 8) x74)))
(assert (not (= (_ bv9 8) (_ bv8 8))))
(assert (not (= x34 x44)))
(assert (not (= x34 x54)))
(assert (not (= x34 x64)))
(assert (not (= x34 x74)))
(assert (not (= x34 (_ bv8 8))))
(assert (not (= x44 x54)))
(assert (not (= x44 x64)))
(assert (not (= x44 x74)))
(assert (not (= x44 (_ bv8 8))))
(assert (not (= x54 x64)))
(assert (not (= x54 x74)))
(assert (not (= x54 (_ bv8 8))))
(assert (not (= x64 x74)))
(assert (not (= x64 (_ bv8 8))))
(assert (not (= x74 (_ bv8 8))))
(assert (not (= (_ bv5 8) x15)))
(assert (not (= (_ bv5 8) x25)))
(assert (not (= (_ bv5 8) x35)))
(assert (not (= (_ bv5 8) x45)))
(assert (not (= (_ bv5 8) x55)))
(assert (not (= (_ bv5 8) (_ bv3 8))))
(assert (not (= (_ bv5 8) x75)))
(assert (not (= (_ bv5 8) (_ bv1 8))))
(assert (not (= x15 x25)))
(assert (not (= x15 x35)))
(assert (not (= x15 x45)))
(assert (not (= x15 x55)))
(assert (not (= x15 (_ bv3 8))))
(assert (not (= x15 x75)))
(assert (not (= x15 (_ bv1 8))))
(assert (not (= x25 x35)))
(assert (not (= x25 x45)))
(assert (not (= x25 x55)))
(assert (not (= x25 (_ bv3 8))))
(assert (not (= x25 x75)))
(assert (not (= x25 (_ bv1 8))))
(assert (not (= x35 x45)))
(assert (not (= x35 x55)))
(assert (not (= x35 (_ bv3 8))))
(assert (not (= x35 x75)))
(assert (not (= x35 (_ bv1 8))))
(assert (not (= x45 x55)))
(assert (not (= x45 (_ bv3 8))))
(assert (not (= x45 x75)))
(assert (not (= x45 (_ bv1 8))))
(assert (not (= x55 (_ bv3 8))))
(assert (not (= x55 x75)))
(assert (not (= x55 (_ bv1 8))))
(assert (not (= (_ bv3 8) x75)))
(assert (not (= (_ bv3 8) (_ bv1 8))))
(assert (not (= x75 (_ bv1 8))))
(assert (not (= x06 x16)))
(assert (not (= x06 (_ bv4 8))))
(assert (not (= x06 (_ bv9 8))))
(assert (not (= x06 x46)))
(assert (not (= x06 (_ bv2 8))))
(assert (not (= x06 x66)))
(assert (not (= x06 x76)))
(assert (not (= x06 (_ bv3 8))))
(assert (not (= x16 (_ bv4 8))))
(assert (not (= x16 (_ bv9 8))))
(assert (not (= x16 x46)))
(assert (not (= x16 (_ bv2 8))))
(assert (not (= x16 x66)))
(assert (not (= x16 x76)))
(assert (not (= x16 (_ bv3 8))))
(assert (not (= (_ bv4 8) (_ bv9 8))))
(assert (not (= (_ bv4 8) x46)))
(assert (not (= (_ bv4 8) (_ bv2 8))))
(assert (not (= (_ bv4 8) x66)))
(assert (not (= (_ bv4 8) x76)))
(assert (not (= (_ bv4 8) (_ bv3 8))))
(assert (not (= (_ bv9 8) x46)))
(assert (not (= (_ bv9 8) (_ bv2 8))))
(assert (not (= (_ bv9 8) x66)))
(assert (not (= (_ bv9 8) x76)))
(assert (not (= (_ bv9 8) (_ bv3 8))))
(assert (not (= x46 (_ bv2 8))))
(assert (not (= x46 x66)))
(assert (not (= x46 x76)))
(assert (not (= x46 (_ bv3 8))))
(assert (not (= (_ bv2 8) x66)))
(assert (not (= (_ bv2 8) x76)))
(assert (not (= (_ bv2 8) (_ bv3 8))))
(assert (not (= x66 x76)))
(assert (not (= x66 (_ bv3 8))))
(assert (not (= x76 (_ bv3 8))))
(assert (not (= (_ bv6 8) x17)))
(assert (not (= (_ bv6 8) x27)))
(assert (not (= (_ bv6 8) (_ bv5 8))))
(assert (not (= (_ bv6 8) x47)))
(assert (not (= (_ bv6 8) x57)))
(assert (not (= (_ bv6 8) x67)))
(assert (not (= (_ bv6 8) (_ bv2 8))))
(assert (not (= (_ bv6 8) x87)))
(assert (not (= x17 x27)))
(assert (not (= x17 (_ bv5 8))))
(assert (not (= x17 x47)))
(assert (not (= x17 x57)))
(assert (not (= x17 x67)))
(assert (not (= x17 (_ bv2 8))))
(assert (not (= x17 x87)))
(assert (not (= x27 (_ bv5 8))))
(assert (not (= x27 x47)))
(assert (not (= x27 x57)))
(assert (not (= x27 x67)))
(assert (not (= x27 (_ bv2 8))))
(assert (not (= x27 x87)))
(assert (not (= (_ bv5 8) x47)))
(assert (not (= (_ bv5 8) x57)))
(assert (not (= (_ bv5 8) x67)))
(assert (not (= (_ bv5 8) (_ bv2 8))))
(assert (not (= (_ bv5 8) x87)))
(assert (not (= x47 x57)))
(assert (not (= x47 x67)))
(assert (not (= x47 (_ bv2 8))))
(assert (not (= x47 x87)))
(assert (not (= x57 x67)))
(assert (not (= x57 (_ bv2 8))))
(assert (not (= x57 x87)))
(assert (not (= x67 (_ bv2 8))))
(assert (not (= x67 x87)))
(assert (not (= (_ bv2 8) x87)))
(assert (not (= (_ bv1 8) x18)))
(assert (not (= (_ bv1 8) x28)))
(assert (not (= (_ bv1 8) x38)))
(assert (not (= (_ bv1 8) (_ bv7 8))))
(assert (not (= (_ bv1 8) x58)))
(assert (not (= (_ bv1 8) (_ bv9 8))))
(assert (not (= (_ bv1 8) (_ bv8 8))))
(assert (not (= (_ bv1 8) x88)))
(assert (not (= x18 x28)))
(assert (not (= x18 x38)))
(assert (not (= x18 (_ bv7 8))))
(assert (not (= x18 x58)))
(assert (not (= x18 (_ bv9 8))))
(assert (not (= x18 (_ bv8 8))))
(assert (not (= x18 x88)))
(assert (not (= x28 x38)))
(assert (not (= x28 (_ bv7 8))))
(assert (not (= x28 x58)))
(assert (not (= x28 (_ bv9 8))))
(assert (not (= x28 (_ bv8 8))))
(assert (not (= x28 x88)))
(assert (not (= x38 (_ bv7 8))))
(assert (not (= x38 x58)))
(assert (not (= x38 (_ bv9 8))))
(assert (not (= x38 (_ bv8 8))))
(assert (not (= x38 x88)))
(assert (not (= (_ bv7 8) x58)))
(assert (not (= (_ bv7 8) (_ bv9 8))))
(assert (not (= (_ bv7 8) (_ bv8 8))))
(assert (not (= (_ bv7 8) x88)))
(assert (not (= x58 (_ bv9 8))))
(assert (not (= x58 (_ bv8 8))))
(assert (not (= x58 x88)))
(assert (not (= (_ bv9 8) (_ bv8 8))))
(assert (not (= (_ bv9 8) x88)))
(assert (not (= (_ bv8 8) x88)))
(assert (not (= x00 x01)))
(assert (not (= x00 x02)))
(assert (not (= x00 (_ bv5 8))))
(assert (not (= x00 (_ bv3 8))))
(assert (not (= x00 x12)))
(assert (not (= x00 x20)))
(assert (not (= x00 (_ bv6 8))))
(assert (not (= x00 x22)))
(assert (not (= x01 x02)))
(assert (not (= x01 (_ bv5 8))))
(assert (not (= x01 (_ bv3 8))))
(assert (not (= x01 x12)))
(assert (not (= x01 x20)))
(assert (not (= x01 (_ bv6 8))))
(assert (not (= x01 x22)))
(assert (not (= x02 (_ bv5 8))))
(assert (not (= x02 (_ bv3 8))))
(assert (not (= x02 x12)))
(assert (not (= x02 x20)))
(assert (not (= x02 (_ bv6 8))))
(assert (not (= x02 x22)))
(assert (not (= (_ bv5 8) (_ bv3 8))))
(assert (not (= (_ bv5 8) x12)))
(assert (not (= (_ bv5 8) x20)))
(assert (not (= (_ bv5 8) (_ bv6 8))))
(assert (not (= (_ bv5 8) x22)))
(assert (not (= (_ bv3 8) x12)))
(assert (not (= (_ bv3 8) x20)))
(assert (not (= (_ bv3 8) (_ bv6 8))))
(assert (not (= (_ bv3 8) x22)))
(assert (not (= x12 x20)))
(assert (not (= x12 (_ bv6 8))))
(assert (not (= x12 x22)))
(assert (not (= x20 (_ bv6 8))))
(assert (not (= x20 x22)))
(assert (not (= (_ bv6 8) x22)))
(assert (not (= (_ bv8 8) x04)))
(assert (not (= (_ bv8 8) (_ bv5 8))))
(assert (not (= (_ bv8 8) (_ bv4 8))))
(assert (not (= (_ bv8 8) x14)))
(assert (not (= (_ bv8 8) x15)))
(assert (not (= (_ bv8 8) (_ bv1 8))))
(assert (not (= (_ bv8 8) (_ bv9 8))))
(assert (not (= (_ bv8 8) x25)))
(assert (not (= x04 (_ bv5 8))))
(assert (not (= x04 (_ bv4 8))))
(assert (not (= x04 x14)))
(assert (not (= x04 x15)))
(assert (not (= x04 (_ bv1 8))))
(assert (not (= x04 (_ bv9 8))))
(assert (not (= x04 x25)))
(assert (not (= (_ bv5 8) (_ bv4 8))))
(assert (not (= (_ bv5 8) x14)))
(assert (not (= (_ bv5 8) x15)))
(assert (not (= (_ bv5 8) (_ bv1 8))))
(assert (not (= (_ bv5 8) (_ bv9 8))))
(assert (not (= (_ bv5 8) x25)))
(assert (not (= (_ bv4 8) x14)))
(assert (not (= (_ bv4 8) x15)))
(assert (not (= (_ bv4 8) (_ bv1 8))))
(assert (not (= (_ bv4 8) (_ bv9 8))))
(assert (not (= (_ bv4 8) x25)))
(assert (not (= x14 x15)))
(assert (not (= x14 (_ bv1 8))))
(assert (not (= x14 (_ bv9 8))))
(assert (not (= x14 x25)))
(assert (not (= x15 (_ bv1 8))))
(assert (not (= x15 (_ bv9 8))))
(assert (not (= x15 x25)))
(assert (not (= (_ bv1 8) (_ bv9 8))))
(assert (not (= (_ bv1 8) x25)))
(assert (not (= (_ bv9 8) x25)))
(assert (not (= x06 (_ bv6 8))))
(assert (not (= x06 (_ bv1 8))))
(assert (not (= x06 x16)))
(assert (not (= x06 x17)))
(assert (not (= x06 x18)))
(assert (not (= x06 (_ bv4 8))))
(assert (not (= x06 x27)))
(assert (not (= x06 x28)))
(assert (not (= (_ bv6 8) (_ bv1 8))))
(assert (not (= (_ bv6 8) x16)))
(assert (not (= (_ bv6 8) x17)))
(assert (not (= (_ bv6 8) x18)))
(assert (not (= (_ bv6 8) (_ bv4 8))))
(assert (not (= (_ bv6 8) x27)))
(assert (not (= (_ bv6 8) x28)))
(assert (not (= (_ bv1 8) x16)))
(assert (not (= (_ bv1 8) x17)))
(assert (not (= (_ bv1 8) x18)))
(assert (not (= (_ bv1 8) (_ bv4 8))))
(assert (not (= (_ bv1 8) x27)))
(assert (not (= (_ bv1 8) x28)))
(assert (not (= x16 x17)))
(assert (not (= x16 x18)))
(assert (not (= x16 (_ bv4 8))))
(assert (not (= x16 x27)))
(assert (not (= x16 x28)))
(assert (not (= x17 x18)))
(assert (not (= x17 (_ bv4 8))))
(assert (not (= x17 x27)))
(assert (not (= x17 x28)))
(assert (not (= x18 (_ bv4 8))))
(assert (not (= x18 x27)))
(assert (not (= x18 x28)))
(assert (not (= (_ bv4 8) x27)))
(assert (not (= (_ bv4 8) x28)))
(assert (not (= x27 x28)))
(assert (not (= x30 (_ bv1 8))))
(assert (not (= x30 x32)))
(assert (not (= x30 (_ bv2 8))))
(assert (not (= x30 x41)))
(assert (not (= x30 (_ bv9 8))))
(assert (not (= x30 (_ bv8 8))))
(assert (not (= x30 (_ bv7 8))))
(assert (not (= x30 (_ bv4 8))))
(assert (not (= (_ bv1 8) x32)))
(assert (not (= (_ bv1 8) (_ bv2 8))))
(assert (not (= (_ bv1 8) x41)))
(assert (not (= (_ bv1 8) (_ bv9 8))))
(assert (not (= (_ bv1 8) (_ bv8 8))))
(assert (not (= (_ bv1 8) (_ bv7 8))))
(assert (not (= (_ bv1 8) (_ bv4 8))))
(assert (not (= x32 (_ bv2 8))))
(assert (not (= x32 x41)))
(assert (not (= x32 (_ bv9 8))))
(assert (not (= x32 (_ bv8 8))))
(assert (not (= x32 (_ bv7 8))))
(assert (not (= x32 (_ bv4 8))))
(assert (not (= (_ bv2 8) x41)))
(assert (not (= (_ bv2 8) (_ bv9 8))))
(assert (not (= (_ bv2 8) (_ bv8 8))))
(assert (not (= (_ bv2 8) (_ bv7 8))))
(assert (not (= (_ bv2 8) (_ bv4 8))))
(assert (not (= x41 (_ bv9 8))))
(assert (not (= x41 (_ bv8 8))))
(assert (not (= x41 (_ bv7 8))))
(assert (not (= x41 (_ bv4 8))))
(assert (not (= (_ bv9 8) (_ bv8 8))))
(assert (not (= (_ bv9 8) (_ bv7 8))))
(assert (not (= (_ bv9 8) (_ bv4 8))))
(assert (not (= (_ bv8 8) (_ bv7 8))))
(assert (not (= (_ bv8 8) (_ bv4 8))))
(assert (not (= (_ bv7 8) (_ bv4 8))))
(assert (not (= x33 x34)))
(assert (not (= x33 x35)))
(assert (not (= x33 x43)))
(assert (not (= x33 x44)))
(assert (not (= x33 x45)))
(assert (not (= x33 x53)))
(assert (not (= x33 x54)))
(assert (not (= x33 x55)))
(assert (not (= x34 x35)))
(assert (not (= x34 x43)))
(assert (not (= x34 x44)))
(assert (not (= x34 x45)))
(assert (not (= x34 x53)))
(assert (not (= x34 x54)))
(assert (not (= x34 x55)))
(assert (not (= x35 x43)))
(assert (not (= x35 x44)))
(assert (not (= x35 x45)))
(assert (not (= x35 x53)))
(assert (not (= x35 x54)))
(assert (not (= x35 x55)))
(assert (not (= x43 x44)))
(assert (not (= x43 x45)))
(assert (not (= x43 x53)))
(assert (not (= x43 x54)))
(assert (not (= x43 x55)))
(assert (not (= x44 x45)))
(assert (not (= x44 x53)))
(assert (not (= x44 x54)))
(assert (not (= x44 x55)))
(assert (not (= x45 x53)))
(assert (not (= x45 x54)))
(assert (not (= x45 x55)))
(assert (not (= x53 x54)))
(assert (not (= x53 x55)))
(assert (not (= x54 x55)))
(assert (not (= (_ bv9 8) (_ bv5 8))))
(assert (not (= (_ bv9 8) x38)))
(assert (not (= (_ bv9 8) x46)))
(assert (not (= (_ bv9 8) x47)))
(assert (not (= (_ bv9 8) (_ bv7 8))))
(assert (not (= (_ bv9 8) (_ bv2 8))))
(assert (not (= (_ bv9 8) x57)))
(assert (not (= (_ bv9 8) x58)))
(assert (not (= (_ bv5 8) x38)))
(assert (not (= (_ bv5 8) x46)))
(assert (not (= (_ bv5 8) x47)))
(assert (not (= (_ bv5 8) (_ bv7 8))))
(assert (not (= (_ bv5 8) (_ bv2 8))))
(assert (not (= (_ bv5 8) x57)))
(assert (not (= (_ bv5 8) x58)))
(assert (not (= x38 x46)))
(assert (not (= x38 x47)))
(assert (not (= x38 (_ bv7 8))))
(assert (not (= x38 (_ bv2 8))))
(assert (not (= x38 x57)))
(assert (not (= x38 x58)))
(assert (not (= x46 x47)))
(assert (not (= x46 (_ bv7 8))))
(assert (not (= x46 (_ bv2 8))))
(assert (not (= x46 x57)))
(assert (not (= x46 x58)))
(assert (not (= x47 (_ bv7 8))))
(assert (not (= x47 (_ bv2 8))))
(assert (not (= x47 x57)))
(assert (not (= x47 x58)))
(assert (not (= (_ bv7 8) (_ bv2 8))))
(assert (not (= (_ bv7 8) x57)))
(assert (not (= (_ bv7 8) x58)))
(assert (not (= (_ bv2 8) x57)))
(assert (not (= (_ bv2 8) x58)))
(assert (not (= x57 x58)))
(assert (not (= x60 x61)))
(assert (not (= x60 x62)))
(assert (not (= x60 x70)))
(assert (not (= x60 x71)))
(assert (not (= x60 (_ bv6 8))))
(assert (not (= x60 (_ bv4 8))))
(assert (not (= x60 x81)))
(assert (not (= x60 x82)))
(assert (not (= x61 x62)))
(assert (not (= x61 x70)))
(assert (not (= x61 x71)))
(assert (not (= x61 (_ bv6 8))))
(assert (not (= x61 (_ bv4 8))))
(assert (not (= x61 x81)))
(assert (not (= x61 x82)))
(assert (not (= x62 x70)))
(assert (not (= x62 x71)))
(assert (not (= x62 (_ bv6 8))))
(assert (not (= x62 (_ bv4 8))))
(assert (not (= x62 x81)))
(assert (not (= x62 x82)))
(assert (not (= x70 x71)))
(assert (not (= x70 (_ bv6 8))))
(assert (not (= x70 (_ bv4 8))))
(assert (not (= x70 x81)))
(assert (not (= x70 x82)))
(assert (not (= x71 (_ bv6 8))))
(assert (not (= x71 (_ bv4 8))))
(assert (not (= x71 x81)))
(assert (not (= x71 x82)))
(assert (not (= (_ bv6 8) (_ bv4 8))))
(assert (not (= (_ bv6 8) x81)))
(assert (not (= (_ bv6 8) x82)))
(assert (not (= (_ bv4 8) x81)))
(assert (not (= (_ bv4 8) x82)))
(assert (not (= x81 x82)))
(assert (not (= (_ bv2 8) x64)))
(assert (not (= (_ bv2 8) (_ bv3 8))))
(assert (not (= (_ bv2 8) (_ bv5 8))))
(assert (not (= (_ bv2 8) x74)))
(assert (not (= (_ bv2 8) x75)))
(assert (not (= (_ bv2 8) (_ bv9 8))))
(assert (not (= (_ bv2 8) (_ bv8 8))))
(assert (not (= (_ bv2 8) (_ bv1 8))))
(assert (not (= x64 (_ bv3 8))))
(assert (not (= x64 (_ bv5 8))))
(assert (not (= x64 x74)))
(assert (not (= x64 x75)))
(assert (not (= x64 (_ bv9 8))))
(assert (not (= x64 (_ bv8 8))))
(assert (not (= x64 (_ bv1 8))))
(assert (not (= (_ bv3 8) (_ bv5 8))))
(assert (not (= (_ bv3 8) x74)))
(assert (not (= (_ bv3 8) x75)))
(assert (not (= (_ bv3 8) (_ bv9 8))))
(assert (not (= (_ bv3 8) (_ bv8 8))))
(assert (not (= (_ bv3 8) (_ bv1 8))))
(assert (not (= (_ bv5 8) x74)))
(assert (not (= (_ bv5 8) x75)))
(assert (not (= (_ bv5 8) (_ bv9 8))))
(assert (not (= (_ bv5 8) (_ bv8 8))))
(assert (not (= (_ bv5 8) (_ bv1 8))))
(assert (not (= x74 x75)))
(assert (not (= x74 (_ bv9 8))))
(assert (not (= x74 (_ bv8 8))))
(assert (not (= x74 (_ bv1 8))))
(assert (not (= x75 (_ bv9 8))))
(assert (not (= x75 (_ bv8 8))))
(assert (not (= x75 (_ bv1 8))))
(assert (not (= (_ bv9 8) (_ bv8 8))))
(assert (not (= (_ bv9 8) (_ bv1 8))))
(assert (not (= (_ bv8 8) (_ bv1 8))))
(assert (not (= x66 x67)))
(assert (not (= x66 (_ bv9 8))))
(assert (not (= x66 x76)))
(assert (not (= x66 (_ bv2 8))))
(assert (not (= x66 (_ bv8 8))))
(assert (not (= x66 (_ bv3 8))))
(assert (not (= x66 x87)))
(assert (not (= x66 x88)))
(assert (not (= x67 (_ bv9 8))))
(assert (not (= x67 x76)))
(assert (not (= x67 (_ bv2 8))))
(assert (not (= x67 (_ bv8 8))))
(assert (not (= x67 (_ bv3 8))))
(assert (not (= x67 x87)))
(assert (not (= x67 x88)))
(assert (not (= (_ bv9 8) x76)))
(assert (not (= (_ bv9 8) (_ bv2 8))))
(assert (not (= (_ bv9 8) (_ bv8 8))))
(assert (not (= (_ bv9 8) (_ bv3 8))))
(assert (not (= (_ bv9 8) x87)))
(assert (not (= (_ bv9 8) x88)))
(assert (not (= x76 (_ bv2 8))))
(assert (not (= x76 (_ bv8 8))))
(assert (not (= x76 (_ bv3 8))))
(assert (not (= x76 x87)))
(assert (not (= x76 x88)))
(assert (not (= (_ bv2 8) (_ bv8 8))))
(assert (not (= (_ bv2 8) (_ bv3 8))))
(assert (not (= (_ bv2 8) x87)))
(assert (not (= (_ bv2 8) x88)))
(assert (not (= (_ bv8 8) (_ bv3 8))))
(assert (not (= (_ bv8 8) x87)))
(assert (not (= (_ bv8 8) x88)))
(assert (not (= (_ bv3 8) x87)))
(assert (not (= (_ bv3 8) x88)))
(assert (not (= x87 x88)))
(check-sat)
(exit)
